NAME          
ROWS
 N  OBJ
 L  c1
 L  c2
 L  c3
 L  c4
 L  c5
COLUMNS
    MARKER    'MARKER'                 'INTORG'
    x[1]      c1        216
    x[1]      c2        543
    x[1]      c3        81
    x[1]      c4        396
    x[1]      c5        439
    x[1]      OBJ       -165
    x[2]      c1        656
    x[2]      c2        384
    x[2]      c3        230
    x[2]      c4        486
    x[2]      c5        975
    x[2]      OBJ       -61
    x[3]      c1        293
    x[3]      c2        873
    x[3]      c3        822
    x[3]      c4        592
    x[3]      c5        82
    x[3]      OBJ       -367
    x[4]      c1        650
    x[4]      c2        891
    x[4]      c3        128
    x[4]      c4        943
    x[4]      c5        648
    x[4]      OBJ       -132
    x[5]      c1        68
    x[5]      c2        956
    x[5]      c3        527
    x[5]      c4        672
    x[5]      c5        147
    x[5]      OBJ       -323
    x[6]      c1        623
    x[6]      c2        967
    x[6]      c3        565
    x[6]      c4        2
    x[6]      c5        562
    x[6]      OBJ       -460
    x[7]      c1        722
    x[7]      c2        872
    x[7]      c3        107
    x[7]      c4        451
    x[7]      c5        304
    x[7]      OBJ       -82
    x[8]      c1        169
    x[8]      c2        846
    x[8]      c3        582
    x[8]      c4        959
    x[8]      c5        701
    x[8]      OBJ       -261
    x[9]      c1        374
    x[9]      c2        455
    x[9]      c3        915
    x[9]      c4        345
    x[9]      c5        776
    x[9]      OBJ       -752
    x[10]     c1        965
    x[10]     c2        62
    x[10]     c3        142
    x[10]     c4        733
    x[10]     c5        119
    x[10]     OBJ       -751
RHS
    rhs       c1        2368
    rhs       c2        3424
    rhs       c3        2050
    rhs       c4        2790
    rhs       c5        2376
RANGES
BOUNDS
 BV bounds    x[1]
 BV bounds    x[2]
 BV bounds    x[3]
 BV bounds    x[4]
 BV bounds    x[5]
 BV bounds    x[6]
 BV bounds    x[7]
 BV bounds    x[8]
 BV bounds    x[9]
 BV bounds    x[10]
ENDATA
